35195
1 1 0 0 0 0 0 0 1 0 1 0 1 0 0 0 0 1 1 1 0 1 0 0 0 0 0 1 0 1 
18 19 21 27 21 12 21 27 18 17 29 17 10 1 19 18 1 10 27 0 18 21 1 0 10 18 27 19 29 21 19 19 19 21 27 12 8 8 27 21 18 8 12 29 8 19 8 21 19 10 0 21 21 21 8 12 18 8 18 18 29 0 18 8 8 12 0 17 19 12 18 12 19 8 10 10 10 10 8 21 10 0 8 12 29 10 19 0 27 18 17 19 18 12 0 1 27 12 0 17 17 21 12 18 29 0 29 27 27 1 19 29 27 12 12 8 17 18 17 8 8 12 17 19 19 21 21 12 19 17 27 21 12 10 1 8 1 8 17 10 12 27 12 12 12 0 27 21 27 12 27 17 10 0 8 27 21 21 8 1 1 27 10 0 10 27 1 29 1 21 1 8 19 10 29 21 0 8 29 8 21 21 21 19 19 8 17 10 0 21 21 0 19 29 27 29 18 0 8 19 
